This is Ipopt version 3.14.16, running with linear solver MUMPS 5.7.3.

Number of nonzeros in equality constraint Jacobian...:        0
Number of nonzeros in inequality constraint Jacobian.:      289
Number of nonzeros in Lagrangian Hessian.............:        0

Total number of variables............................:       17
                     variables with only lower bounds:        0
                variables with lower and upper bounds:       17
                     variables with only upper bounds:        0
Total number of equality constraints.................:        0
Total number of inequality constraints...............:       17
        inequality constraints with only lower bounds:        0
   inequality constraints with lower and upper bounds:        0
        inequality constraints with only upper bounds:       17

iter    objective    inf_pr   inf_du lg(mu)  ||d||  lg(rg) alpha_du alpha_pr  ls
   0  5.5968366e-02 0.00e+00 9.67e-01   0.0 0.00e+00    -  0.00e+00 0.00e+00   0
   1  5.6159338e-02 2.95e-05 3.45e-01  -6.5 1.69e-02    -  6.53e-01 9.87e-01h  1
   2  5.5105334e-02 0.00e+00 1.12e-02  -6.9 4.79e-02    -  9.85e-01 1.00e+00h  1
   3  5.2351600e-02 0.00e+00 3.25e-02  -3.6 9.79e-02    -  1.00e+00 1.00e+00f  1
   4  5.1616088e-02 0.00e+00 1.67e-02  -3.6 2.66e-02    -  1.00e+00 9.90e-01h  1
   5  4.5308646e-02 0.00e+00 2.43e-02  -5.1 2.61e-01    -  1.00e+00 1.00e+00h  1
   6  4.4532929e-02 0.00e+00 4.96e-03  -6.8 3.70e-02    -  1.00e+00 8.12e-01h  1
   7  4.4353971e-02 0.00e+00 5.60e-05  -7.5 7.58e-03    -  1.00e+00 9.96e-01h  1

Number of Iterations....: 7

                                   (scaled)                 (unscaled)
Objective...............:   4.4353971124629708e-02    4.4353971124629708e-02
Dual infeasibility......:   5.5987376045715798e-05    5.5987376045715798e-05
Constraint violation....:   0.0000000000000000e+00    0.0000000000000000e+00
Variable bound violation:   0.0000000000000000e+00    0.0000000000000000e+00
Complementarity.........:   5.9562359086177264e-08    5.9562359086177264e-08
Overall NLP error.......:   5.5987376045715798e-05    5.5987376045715798e-05


Number of objective function evaluations             = 8
Number of objective gradient evaluations             = 8
Number of equality constraint evaluations            = 0
Number of inequality constraint evaluations          = 8
Number of equality constraint Jacobian evaluations   = 0
Number of inequality constraint Jacobian evaluations = 8
Number of Lagrangian Hessian evaluations             = 0
Total seconds in IPOPT                               = 2.806

EXIT: Optimal Solution Found.
